(set-logic QF_FPBV)
(set-info :source |Random FP created by PyMPF|)
(set-info :category random)
(set-info :status unsat)
;; fp.from.sbv(BitVec 32)
(declare-const x (_ BitVec 32))
(assert (bvsle x #b10101111001011100111010110010101))
;; x should be -1355909739
(declare-const r Float64)
(assert (= r ((_ to_fp 11 53) RTP x)))
(assert (not (fp.leq r (fp #b1 #b10000011101 #b0100001101000110001010011010110000000000000000000000))))
(check-sat)
(exit)
